12 16 9 10
1 2 2 3 9 1 12 13 19 13 18 7 20 15 18 2 
6.64 7.88 1.36 1.42 4.27 2.58 5.29 7.27 5.61 0.09 1.47 3.39 3.21 3.07 5.48 7.64 
2.87 6.13 0.13 0.09 4.67 7.77 5.87 7.7 7.85 2.69 6.21 1.85 0.27 2.82 3.7 6.75 
6.48 5.06 1.09 2.6 3.31 0.11 2.5 6.11 1.67 6.97 1.9 4.93 6.77 7.03 1.35 6.4 
6.15 5.66 4.47 6.71 6.11 5.71 6.04 5.32 4.34 6.7 5.47 6.22 3.01 3.4 5.48 6.8 
4.6 2.94 0.1 4.52 4.42 1.48 7.9 7.82 1.63 3.83 1.65 0.99 1.98 6.32 1.39 0.5 
1.55 5.19 4.35 3.66 2.78 6.52 5.15 0.15 2.02 5.8 1.02 5.36 4.62 2.85 0.24 6.46 
1.42 6.86 4.07 5.25 7.35 0.16 0.33 2.28 1.61 0.48 7.23 1.84 2.89 0.7 4.5 0.66 
5.69 5.08 7.28 2.73 1.98 7.97 4.64 7.12 5.21 5.08 1.8 3.05 2.55 1.23 2.98 4.3 
5.18 2.27 3.2 7.13 2.56 1.1 1.99 6.98 3.17 0.08 4.87 4.48 3.99 3.63 3.52 6.92 
4 4 4 4 4 4 4 4 4 4 4 4 4 4 4 4 
0.24 4.64 2.76 4.28 6.51 7.24 1.56 3.93 5.95 7.57 2.59 6.99 1.79 7.32 6.06 0.61 
7.6 3.12 6.64 4.88 5.46 0.63 3.04 2.98 1.36 5.81 3.87 5.27 3.19 6.74 3.96 3.18 
1 1 1 1 1 1 1 1 1 1 1 1 1 1 1 1 
1 1 1 1 1 1 1 1 1 1 1 1 1 1 1 1 
1 1 1 1 1 1 1 1 1 1 1 1 1 1 1 1 
1 1 1 1 1 1 1 1 1 1 1 1 1 1 1 1 
1 1 1 1 1 1 1 1 1 1 1 1 1 1 1 1 
1 1 1 1 1 1 1 1 1 1 1 1 1 1 1 1 
1 1 1 1 1 1 1 1 1 1 1 1 1 1 1 1 
1 1 1 1 1 1 1 1 1 1 1 1 1 1 1 1 
1 1 1 1 1 1 1 1 1 1 1 1 1 1 1 1 
1 1 1 1 1 1 1 1 1 1 1 1 1 1 1 1 
1 1 1 1 1 1 1 1 1 1 1 1 1 1 1 1 
1 1 1 1 1 1 1 1 1 1 1 1 1 1 1 1 
0.01 0.01 0.01 0.01 0.01 0.01 0.01 0.01 0.01 0.01 0.01 0.01 0.01 0.01 0.01 0.01 
0.02 0.02 0.02 0.02 0.02 0.02 0.02 0.02 0.02 0.02 0.02 0.02 0.02 0.02 0.02 0.02 
0.03 0.03 0.03 0.03 0.03 0.03 0.03 0.03 0.03 0.03 0.03 0.03 0.03 0.03 0.03 0.03 
0.04 0.04 0.04 0.04 0.04 0.04 0.04 0.04 0.04 0.04 0.04 0.04 0.04 0.04 0.04 0.04 
0.05 0.05 0.05 0.05 0.05 0.05 0.05 0.05 0.05 0.05 0.05 0.05 0.05 0.05 0.05 0.05 
0.06 0.06 0.06 0.06 0.06 0.06 0.06 0.06 0.06 0.06 0.06 0.06 0.06 0.06 0.06 0.06 
0.07 0.07 0.07 0.07 0.07 0.07 0.07 0.07 0.07 0.07 0.07 0.07 0.07 0.07 0.07 0.07 
0.08 0.08 0.08 0.08 0.08 0.08 0.08 0.08 0.08 0.08 0.08 0.08 0.08 0.08 0.08 0.08 
0.09 0.09 0.09 0.09 0.09 0.09 0.09 0.09 0.09 0.09 0.09 0.09 0.09 0.09 0.09 0.09 
0.1 0.1 0.1 0.1 0.1 0.1 0.1 0.1 0.1 0.1 0.1 0.1 0.1 0.1 0.1 0.1 
0.5 0.5 0.5 0.5 0.5 0.5 0.5 0.5 0.5 0.5 0.5 0.5 0.5 0.5 0.5 0.5 
1 1 1 1 1 1 1 1 1 1 1 1 1 1 1 1 
